p cnf 22 18
d 0.875 0.125
d 0.875 0.125
d 0.875 0.125
d 0.875 0.125
d 0.875 0.125
d 0.875 0.125
d 0.875 0.125
d 0.875 0.125
19
-20
16 -18 -0
18 -16 -0
16 -21 -2
21 -16 -2
21 -18 -4
18 -21 -4
17 -16 -6
16 -17 -6
19 -16 -8
16 -19 -8
17 -18 -10
18 -17 -10
16 -19 -12
19 -16 -12
21 -20 -14
20 -21 -14